Input file: instance_14.lp
Input data:
num_squadre(4).
player(1, attaccante, centrocampista).
player(2, portiere, attaccante).
player(3, portiere, difensore).
player(4, difensore, attaccante).
player(5, centrocampista, portiere).
player(6, portiere, centrocampista).
player(7, attaccante, portiere).
player(8, attaccante, portiere).
player(9, difensore, portiere).
player(10, attaccante, centrocampista).
player(11, attaccante, portiere).
player(12, attaccante, centrocampista).
player(13, attaccante, portiere).
player(14, portiere, difensore).
player(15, difensore, centrocampista).
player(16, centrocampista, difensore).
player(17, centrocampista, portiere).
player(18, centrocampista, difensore).
player(19, centrocampista, portiere).
player(20, attaccante, difensore).
player(21, attaccante, centrocampista).
player(22, attaccante, centrocampista).
player(23, attaccante, difensore).
player(24, portiere, centrocampista).
player(25, difensore, portiere).
player(26, centrocampista, attaccante).
player(27, portiere, centrocampista).
player(28, centrocampista, attaccante).
different_team(1, 2).
different_team(1, 3).
different_team(1, 4).
different_team(2, 3).
different_team(2, 4).
different_team(3, 4).
different_team(15, 27).
different_team(3, 26).
different_team(2, 8).
different_team(10, 15).

Output Clingo:
clingo version 5.7.1
Reading from ...ed-Reasoning-Project\Clingo\implASP.lp ...
Solving...
Answer: 1
assigned(1,4,attaccante) assigned(2,3,portiere) assigned(3,2,difensore) assigned(4,1,attaccante) assigned(5,1,portiere) assigned(6,2,portiere) assigned(7,4,attaccante) assigned(8,4,portiere) assigned(9,4,difensore) assigned(10,4,attaccante) assigned(11,3,attaccante) assigned(12,4,attaccante) assigned(13,2,attaccante) assigned(14,3,difensore) assigned(15,1,difensore) assigned(16,4,difensore) assigned(17,1,centrocampista) assigned(18,2,difensore) assigned(19,3,centrocampista) assigned(20,4,attaccante) assigned(21,4,attaccante) assigned(22,4,attaccante) assigned(23,4,attaccante) assigned(24,2,centrocampista) assigned(25,1,difensore) assigned(26,4,attaccante) assigned(27,4,centrocampista) assigned(28,4,attaccante) total_penalty(1)
Optimization: 1
Answer: 2
assigned(1,4,centrocampista) assigned(2,3,portiere) assigned(3,1,difensore) assigned(4,2,difensore) assigned(5,1,portiere) assigned(6,3,centrocampista) assigned(7,4,attaccante) assigned(8,4,portiere) assigned(9,4,difensore) assigned(10,1,centrocampista) assigned(11,3,attaccante) assigned(12,3,centrocampista) assigned(13,2,attaccante) assigned(14,3,difensore) assigned(15,2,centrocampista) assigned(16,4,difensore) assigned(17,2,portiere) assigned(18,4,centrocampista) assigned(19,4,centrocampista) assigned(20,1,difensore) assigned(21,1,attaccante) assigned(22,3,centrocampista) assigned(23,3,difensore) assigned(24,2,centrocampista) assigned(25,2,difensore) assigned(26,2,centrocampista) assigned(27,1,centrocampista) assigned(28,1,centrocampista) total_penalty(0)
Optimization: 0
Answer: 1
assigned(1,4,centrocampista) assigned(2,3,portiere) assigned(3,1,difensore) assigned(4,2,difensore) assigned(5,1,portiere) assigned(6,3,centrocampista) assigned(7,4,attaccante) assigned(8,4,portiere) assigned(9,4,difensore) assigned(10,1,centrocampista) assigned(11,3,attaccante) assigned(12,3,centrocampista) assigned(13,2,attaccante) assigned(14,3,difensore) assigned(15,2,centrocampista) assigned(16,4,difensore) assigned(17,2,portiere) assigned(18,4,centrocampista) assigned(19,4,centrocampista) assigned(20,2,difensore) assigned(21,1,attaccante) assigned(22,3,centrocampista) assigned(23,3,difensore) assigned(24,2,centrocampista) assigned(25,1,difensore) assigned(26,2,centrocampista) assigned(27,1,centrocampista) assigned(28,1,centrocampista) total_penalty(0)
Optimization: 0
OPTIMUM FOUND

Models       : 3+
  Optimum    : yes
Optimization : 0
Calls        : 1
Time         : 0.014s (Solving: 0.00s 1st Model: 0.00s Unsat: 0.00s)
CPU Time     : 0.000s

Tempo di esecuzione Clingo: 0.03 secondi
